nServices=10;
nDrivers=10;
nBuses=10;
startingTime=[119 115 82 49 67 102 17 108 169 55];
durationTime=[26 13 26 21 21 15 25 13 22 24];
durationDist=[46 36 22 51 39 21 43 44 37 42];
passangers=[5 5 16 17 11 20 14 22 19 4];
capacity=[20 20 14 10 21 25 24 27 17 28];
costTime=[10 8 7 7 10 8 6 6 9 6];
costDist=[3 3 4 6 4 4 2 3 2 4];
maxTime=[38 54 38 31 41 38 28 51 43 41];
costBM=[7 6 7 5 5 5 6 6 6 8];
costEM=[10 8 10 10 8 12 10 8 10 8];
BM=[19 11 20 16 14 11 19 17 10 15];
